40 40
8 26
10 37
9 11
4 15
7 17
13 31
18 23
17 14
16 20
3 5
16 27
5 30
6 29
19 35
9 13
1 18
14 3
12 6
20 19
13 2
12 21
20 36
7 34
8 12
19 33
5 28
11 24
2 25
1 8
14 40
15 7
2 39
17 22
15 10
10 1
11 38
18 32
4 4
6 9
3 16
